p cnf 50 120
12 16 -3 0
-8 -23 -47 0
17 43 44 0
-31 -26 30 0
-20 -8 -11 0
-8 -21 10 0
-20 49 -39 0
-28 50 -42 0
-20 -2 -8 0
-36 -34 15 0
25 -45 8 0
17 44 -28 0
29 -8 10 0
45 -31 17 0
50 30 44 0
23 14 31 0
38 -34 47 0
23 30 -11 0
-13 -50 30 0
16 -17 21 0
-26 28 19 0
29 -3 21 0
8 -40 -34 0
17 35 -2 0
-1 -24 -44 0
16 -38 -33 0
17 -22 -37 0
-50 -39 -17 0
29 14 -24 0
-29 -23 -7 0
29 -3 -50 0
-13 -2 8 0
30 44 5 0
10 15 25 0
-8 26 5 0
26 32 -12 0
42 21 -5 0
-27 -48 -9 0
42 -23 11 0
-5 -31 -6 0
-28 -20 -12 0
16 39 -42 0
-2 10 -4 0
10 24 31 0
15 13 22 0
37 -6 -40 0
10 33 -45 0
11 6 16 0
26 -31 -21 0
-10 -27 3 0
8 3 -10 0
-11 7 -34 0
19 -32 -33 0
43 -32 -8 0
-13 -12 -49 0
-33 -6 -3 0
39 -25 -47 0
-10 -3 -29 0
-41 46 47 0
-37 -50 -46 0
-28 33 15 0
-36 -6 12 0
-11 -37 27 0
33 -20 28 0
48 -22 3 0
18 -14 38 0
-33 46 50 0
-10 33 -27 0
-29 -41 26 0
50 4 -24 0
-34 -14 -41 0
-25 -20 -4 0
32 -48 24 0
27 15 -2 0
28 -35 4 0
-16 45 2 0
-8 6 9 0
30 -8 18 0
-8 -25 -36 0
36 25 6 0
9 -7 17 0
24 -38 32 0
15 -36 43 0
6 -24 33 0
16 49 -14 0
-28 -20 -18 0
21 38 49 0
-46 -29 39 0
-25 27 10 0
36 41 -17 0
-3 5 4 0
16 -27 22 0
-43 -24 -45 0
13 -41 37 0
47 41 1 0
34 49 20 0
3 33 45 0
47 -19 42 0
-29 -14 -7 0
27 31 -24 0
x -1 4 5 8 -10 -12 15 16 18 -19 21 -23 -25 28 29 -30 35 -36 40 -44 -45 46 0
x -3 -4 5 -6 -9 10 -12 -13 -15 -16 18 20 21 -26 27 29 31 36 -37 -38 40 -43 44 -45 -46 0
x -3 5 7 9 -10 13 14 22 23 -25 -27 -28 30 -32 -35 -37 -40 -41 -46 -47 49 -50 0
x -3 -5 6 -7 -8 -11 12 13 14 -15 -17 18 20 22 -26 -28 -30 31 -35 38 -40 42 43 -45 -46 50 0
x -1 -2 4 -6 -12 -13 16 -18 -19 24 25 -29 -33 -34 -35 -37 38 40 -41 -42 46 50 0
x 1 -3 -5 -6 10 -11 -12 13 14 -15 -17 21 22 -24 25 26 28 -33 -35 -36 -37 40 -41 -42 -43 47 -48 -49 -50 0
x -1 -5 8 9 -14 15 16 17 19 22 -23 25 -26 32 -39 -43 44 45 -48 49 -50 0
x 7 8 -9 10 -12 16 -17 19 -20 -21 22 24 27 28 30 -33 -36 37 38 39 40 43 44 45 -48 -50 0
x 1 -2 3 -4 5 -8 11 -12 -14 -15 -17 18 19 26 -28 29 30 -31 -32 34 -35 36 37 -39 40 -43 -44 45 46 48 -49 0
x -1 -2 -3 4 6 -7 9 -11 14 -15 18 -19 -20 -21 -27 28 -29 30 -31 34 -37 39 43 -45 -50 0
x -1 -6 8 -9 12 15 17 18 -20 -28 -29 -30 31 -32 33 34 -35 -36 -38 -39 41 -42 -43 44 45 -49 50 0
x -1 -2 6 7 -10 11 -15 -16 19 20 -21 -25 28 -29 -31 -33 -34 35 -36 -37 40 41 43 -44 46 -47 -49 0
x 3 5 -7 -8 10 -12 15 -21 -22 -23 -25 -26 28 -30 -32 -36 37 38 -41 -42 45 -49 0
x -1 3 -14 -16 -17 18 21 22 -23 -24 -26 30 -32 33 37 -42 48 -49 -50 0
x 1 3 -9 12 16 18 19 -23 25 -28 -29 30 -34 38 39 -40 -41 -42 43 47 0
x 1 -2 4 -6 -7 9 -15 -16 17 19 20 22 27 -28 31 -33 34 -35 38 39 40 43 -46 47 48 0
x 2 -4 -5 -7 9 -10 -12 16 -18 19 20 -21 27 28 -29 30 -34 -35 -36 -39 -40 -43 45 -46 -47 -49 0
x 1 -2 8 19 -21 -22 23 24 -26 -27 29 -30 -31 -33 35 -36 -38 -39 -40 -42 43 -44 -45 46 -47 50 0
x 1 3 -6 7 -8 11 12 -14 -15 -17 18 19 23 -24 -26 27 -28 29 -34 35 -36 -37 -38 -41 46 48 0
x -1 -5 -9 -12 -14 -16 -18 19 20 21 -24 25 -28 -29 -31 -32 39 40 -42 -43 44 -45 -50 0
